(set-info :source |printed by MathSAT|)
(declare-fun call_synapse.invalid_s () Int)
(declare-fun call_synapse.mem_init_s () Int)
(declare-fun call_synapse.ite3 () Int)
(declare-fun call_synapse.garde_s3 () Bool)
(declare-fun call_synapse.ite () Int)
(declare-fun call_synapse.ite7 () Int)
(declare-fun call_excludes3.excludes () Bool)
(declare-fun call_synapse.ite6 () Int)
(declare-fun call_synapse.ite11 () Int)
(declare-fun call_synapse.ite12 () Int)
(declare-fun param_e_s1 () Bool)
(declare-fun param_e_s2 () Bool)
(declare-fun call_synapse.ite2 () Int)
(declare-fun call_synapse.dirty_s () Int)
(declare-fun env () Bool)
(declare-fun call_Sofar.Sofar () Bool)
(declare-fun _OK_ () Bool)
(declare-fun call_synapse.flby () Int)
(declare-fun call_synapse.flby2 () Int)
(declare-fun invalid_s () Int)
(declare-fun call_synapse.ite18 () Int)
(declare-fun valid_s () Int)
(declare-fun call_synapse.ite5 () Int)
(declare-fun call_synapse.ite10 () Int)
(declare-fun param_init_invalid_s () Int)
(declare-fun param_e_s3 () Bool)
(declare-fun dirty_s () Int)
(declare-fun call_synapse.garde_s2 () Bool)
(declare-fun call_synapse.ite4 () Int)
(declare-fun call_synapse.ite8 () Int)
(declare-fun call_synapse.ite15 () Int)
(declare-fun mem_init_s () Int)
(declare-fun call_Sofar.flby () Bool)
(declare-fun call_synapse.ite9 () Int)
(declare-fun call_synapse.ite13 () Int)
(declare-fun call_synapse.flby4 () Int)
(declare-fun call_synapse.ite16 () Int)
(declare-fun call_synapse.garde_s1 () Bool)
(declare-fun call_synapse.ite17 () Int)
(declare-fun call_synapse.valid_s () Int)
(declare-fun call_synapse.flby3 () Int)
(declare-fun call_synapse.ite14 () Int)
(define-fun .def_556 () Bool (= call_Sofar.flby call_Sofar.Sofar))
(define-fun .def_551 () Bool (and param_e_s3 param_e_s2))
(define-fun .def_548 () Bool (and param_e_s1 param_e_s2))
(define-fun .def_549 () Bool (and param_e_s1 .def_548))
(define-fun .def_550 () Bool (and param_e_s3 .def_549))
(define-fun .def_552 () Bool (or .def_550 .def_551))
(define-fun .def_553 () Bool (not .def_552))
(define-fun .def_554 () Bool (= call_excludes3.excludes .def_553))
(define-fun .def_546 () Bool (= call_synapse.flby call_synapse.mem_init_s))
(define-fun .def_544 () Bool (= call_synapse.flby4 call_synapse.dirty_s))
(define-fun .def_542 () Bool (= call_synapse.flby3 call_synapse.valid_s))
(define-fun .def_540 () Bool (= call_synapse.flby2 call_synapse.invalid_s))
(define-fun .def_536 () Bool (= call_synapse.ite16 call_synapse.ite17))
(define-fun .def_537 () Bool (or param_e_s2 .def_536))
(define-fun .def_533 () Bool (= call_synapse.ite14 call_synapse.ite17))
(define-fun .def_524 () Bool (not param_e_s2))
(define-fun .def_534 () Bool (or .def_524 .def_533))
(define-fun .def_530 () Bool (= call_synapse.ite10 call_synapse.ite11))
(define-fun .def_531 () Bool (or param_e_s2 .def_530))
(define-fun .def_527 () Bool (= call_synapse.ite8 call_synapse.ite11))
(define-fun .def_528 () Bool (or .def_524 .def_527))
(define-fun .def_523 () Bool (= call_synapse.ite5 call_synapse.ite2))
(define-fun .def_525 () Bool (or .def_523 .def_524))
(define-fun .def_519 () Bool (= call_synapse.ite4 call_synapse.ite5))
(define-fun .def_521 () Bool (or .def_519 param_e_s2))
(define-fun .def_526 () Bool (and .def_521 .def_525))
(define-fun .def_529 () Bool (and .def_526 .def_528))
(define-fun .def_532 () Bool (and .def_529 .def_531))
(define-fun .def_535 () Bool (and .def_532 .def_534))
(define-fun .def_538 () Bool (and .def_535 .def_537))
(define-fun .def_515 () Bool (= call_synapse.ite18 call_synapse.ite17))
(define-fun .def_516 () Bool (or param_e_s1 .def_515))
(define-fun .def_511 () Bool (= call_synapse.ite13 call_synapse.ite18))
(define-fun .def_498 () Bool (not param_e_s1))
(define-fun .def_512 () Bool (or .def_498 .def_511))
(define-fun .def_507 () Bool (= call_synapse.ite12 call_synapse.ite11))
(define-fun .def_508 () Bool (or param_e_s1 .def_507))
(define-fun .def_503 () Bool (= call_synapse.ite7 call_synapse.ite12))
(define-fun .def_504 () Bool (or .def_498 .def_503))
(define-fun .def_497 () Bool (= call_synapse.ite6 call_synapse.ite))
(define-fun .def_499 () Bool (or .def_497 .def_498))
(define-fun .def_493 () Bool (= call_synapse.ite6 call_synapse.ite5))
(define-fun .def_495 () Bool (or .def_493 param_e_s1))
(define-fun .def_500 () Bool (and .def_495 .def_499))
(define-fun .def_505 () Bool (and .def_500 .def_504))
(define-fun .def_509 () Bool (and .def_505 .def_508))
(define-fun .def_513 () Bool (and .def_509 .def_512))
(define-fun .def_517 () Bool (and .def_513 .def_516))
(define-fun .def_489 () Bool (= env call_Sofar.Sofar))
(define-fun .def_486 () Bool (= call_synapse.mem_init_s mem_init_s))
(define-fun .def_483 () Bool (= dirty_s call_synapse.dirty_s))
(define-fun .def_480 () Bool (= valid_s call_synapse.valid_s))
(define-fun .def_477 () Bool (= invalid_s call_synapse.invalid_s))
(define-fun .def_470 () Bool (<= 1 valid_s))
(define-fun .def_471 () Bool (not .def_470))
(define-fun .def_467 () Bool (<= 1 dirty_s))
(define-fun .def_468 () Bool (not .def_467))
(define-fun .def_472 () Bool (or .def_468 .def_471))
(define-fun .def_465 () Bool (not env))
(define-fun .def_473 () Bool (or .def_465 .def_472))
(define-fun .def_474 () Bool (= _OK_ .def_473))
(define-fun .def_478 () Bool (and .def_474 .def_477))
(define-fun .def_481 () Bool (and .def_478 .def_480))
(define-fun .def_484 () Bool (and .def_481 .def_483))
(define-fun .def_487 () Bool (and .def_484 .def_486))
(define-fun .def_490 () Bool (and .def_487 .def_489))
(define-fun .def_518 () Bool (and .def_490 .def_517))
(define-fun .def_539 () Bool (and .def_518 .def_538))
(define-fun .def_541 () Bool (and .def_539 .def_540))
(define-fun .def_543 () Bool (and .def_541 .def_542))
(define-fun .def_545 () Bool (and .def_543 .def_544))
(define-fun .def_547 () Bool (and .def_545 .def_546))
(define-fun .def_555 () Bool (and .def_547 .def_554))
(define-fun .def_557 () Bool (and .def_555 .def_556))
(define-fun .def_457 () Bool (<= 0 param_init_invalid_s))
(define-fun .def_459 () Bool (and .def_457 call_excludes3.excludes))
(define-fun .def_461 () Bool (= .def_459 call_Sofar.flby))
(define-fun .def_455 () Bool (= call_synapse.flby4 0))
(define-fun .def_452 () Bool (= call_synapse.flby3 0))
(define-fun .def_449 () Bool (= call_synapse.flby2 call_synapse.mem_init_s))
(define-fun .def_445 () Bool (= param_init_invalid_s call_synapse.flby))
(define-fun .def_439 () Bool (= call_synapse.ite9 0))
(define-fun .def_437 () Bool (not call_synapse.garde_s3))
(define-fun .def_440 () Bool (or .def_437 .def_439))
(define-fun .def_435 () Bool (= call_synapse.ite15 1))
(define-fun .def_438 () Bool (or .def_435 .def_437))
(define-fun .def_441 () Bool (and .def_438 .def_440))
(define-fun .def_431 () Bool (= call_synapse.ite8 0))
(define-fun .def_428 () Bool (not call_synapse.garde_s2))
(define-fun .def_432 () Bool (or .def_428 .def_431))
(define-fun .def_426 () Bool (= call_synapse.ite14 1))
(define-fun .def_429 () Bool (or .def_426 .def_428))
(define-fun .def_433 () Bool (and .def_429 .def_432))
(define-fun .def_422 () Bool (= call_synapse.ite13 0))
(define-fun .def_420 () Bool (not call_synapse.garde_s1))
(define-fun .def_423 () Bool (or .def_420 .def_422))
(define-fun .def_416 () Bool (= call_synapse.ite15 call_synapse.ite16))
(define-fun .def_407 () Bool (not param_e_s3))
(define-fun .def_417 () Bool (or .def_407 .def_416))
(define-fun .def_411 () Bool (= call_synapse.ite3 call_synapse.ite4))
(define-fun .def_412 () Bool (or .def_407 .def_411))
(define-fun .def_405 () Bool (= call_synapse.ite9 call_synapse.ite10))
(define-fun .def_408 () Bool (or .def_405 .def_407))
(define-fun .def_413 () Bool (and .def_408 .def_412))
(define-fun .def_418 () Bool (and .def_413 .def_417))
(define-fun .def_424 () Bool (and .def_418 .def_423))
(define-fun .def_434 () Bool (and .def_424 .def_433))
(define-fun .def_442 () Bool (and .def_434 .def_441))
(define-fun .def_446 () Bool (and .def_442 .def_445))
(define-fun .def_450 () Bool (and .def_446 .def_449))
(define-fun .def_453 () Bool (and .def_450 .def_452))
(define-fun .def_456 () Bool (and .def_453 .def_455))
(define-fun .def_462 () Bool (and .def_456 .def_461))
(define-fun .def_558 () Bool (and .def_462 .def_557))
(assert .def_558)
